Problem:    orientering_problem
Rows:       307
Columns:    288 (272 integer, 272 binary)
Non-zeros:  2148
Status:     INTEGER OPTIMAL
Objective:  obj = 245 (MAXimum)

   No.   Row name        Activity     Lower bound   Upper bound
------ ------------    ------------- ------------- -------------
     1 obj                       245                             
     2 c1[1]                       0            -0             = 
     3 c1[2]                       0            -0             = 
     4 c1[3]                       0            -0             = 
     5 c1[4]                       0            -0             = 
     6 c1[5]                       0            -0             = 
     7 c1[6]                       0            -0             = 
     8 c1[7]                       0            -0             = 
     9 c1[8]                       0            -0             = 
    10 c1[9]                       0            -0             = 
    11 c1[10]                      0            -0             = 
    12 c1[11]                      0            -0             = 
    13 c1[12]                      0            -0             = 
    14 c1[13]                      0            -0             = 
    15 c1[14]                      0            -0             = 
    16 c1[15]                      0            -0             = 
    17 c1[16]                      0            -0             = 
    18 c2[1]                       0            -0             = 
    19 c2[2]                       0            -0             = 
    20 c2[3]                       0            -0             = 
    21 c2[4]                       0            -0             = 
    22 c2[5]                       0            -0             = 
    23 c2[6]                       0            -0             = 
    24 c2[7]                       0            -0             = 
    25 c2[8]                       0            -0             = 
    26 c2[9]                       0            -0             = 
    27 c2[10]                      0            -0             = 
    28 c2[11]                      0            -0             = 
    29 c2[12]                      0            -0             = 
    30 c2[13]                      0            -0             = 
    31 c2[14]                      0            -0             = 
    32 c2[15]                      0            -0             = 
    33 c2[16]                      0            -0             = 
    34 c3                          1             1             = 
    35 c4                          1             1             = 
    36 c5[2]                       1                           1 
    37 c5[3]                       1                           1 
    38 c5[4]                       1                           1 
    39 c5[5]                       1                           1 
    40 c5[6]                       1                           1 
    41 c5[7]                       1                           1 
    42 c5[8]                       1                           1 
    43 c5[9]                       1                           1 
    44 c5[10]                      1                           1 
    45 c5[11]                      1                           1 
    46 c5[12]                      1                           1 
    47 c5[13]                      1                           1 
    48 c5[14]                      1                           1 
    49 c5[15]                      1                           1 
    50 c5[16]                      1                           1 
    51 c6[2]                       1                           1 
    52 c6[3]                       1                           1 
    53 c6[4]                       1                           1 
    54 c6[5]                       1                           1 
    55 c6[6]                       1                           1 
    56 c6[7]                       1                           1 
    57 c6[8]                       1                           1 
    58 c6[9]                       1                           1 
    59 c6[10]                      1                           1 
    60 c6[11]                      1                           1 
    61 c6[12]                      1                           1 
    62 c6[13]                      1                           1 
    63 c6[14]                      1                           1 
    64 c6[15]                      1                           1 
    65 c6[16]                      1                           1 
    66 c7                        267                         270 
    67 c8                          1             1             = 
    68 c9[2]                      16             2            16 
    69 c9[3]                      15             2            16 
    70 c9[4]                      14             2            16 
    71 c9[5]                       2             2            16 
    72 c9[6]                      13             2            16 
    73 c9[7]                       3             2            16 
    74 c9[8]                       4             2            16 
    75 c9[9]                      12             2            16 
    76 c9[10]                      5             2            16 
    77 c9[11]                      6             2            16 
    78 c9[12]                      7             2            16 
    79 c9[13]                      8             2            16 
    80 c9[14]                      9             2            16 
    81 c9[15]                     10             2            16 
    82 c9[16]                     11             2            16 
    83 c10[2,2]                    0                          14 
    84 c10[2,3]                    1                          14 
    85 c10[2,4]                    2                          14 
    86 c10[2,5]                   14                          14 
    87 c10[2,6]                    3                          14 
    88 c10[2,7]                   13                          14 
    89 c10[2,8]                   12                          14 
    90 c10[2,9]                    4                          14 
    91 c10[2,10]                  11                          14 
    92 c10[2,11]                  10                          14 
    93 c10[2,12]                   9                          14 
    94 c10[2,13]                   8                          14 
    95 c10[2,14]                   7                          14 
    96 c10[2,15]                   6                          14 
    97 c10[2,16]                   5                          14 
    98 c10[3,2]                   14                          14 
    99 c10[3,3]                    0                          14 
   100 c10[3,4]                    1                          14 
   101 c10[3,5]                   13                          14 
   102 c10[3,6]                    2                          14 
   103 c10[3,7]                   12                          14 
   104 c10[3,8]                   11                          14 
   105 c10[3,9]                    3                          14 
   106 c10[3,10]                  10                          14 
   107 c10[3,11]                   9                          14 
   108 c10[3,12]                   8                          14 
   109 c10[3,13]                   7                          14 
   110 c10[3,14]                   6                          14 
   111 c10[3,15]                   5                          14 
   112 c10[3,16]                   4                          14 
   113 c10[4,2]                   -2                          14 
   114 c10[4,3]                   14                          14 
   115 c10[4,4]                    0                          14 
   116 c10[4,5]                   12                          14 
   117 c10[4,6]                    1                          14 
   118 c10[4,7]                   11                          14 
   119 c10[4,8]                   10                          14 
   120 c10[4,9]                    2                          14 
   121 c10[4,10]                   9                          14 
   122 c10[4,11]                   8                          14 
   123 c10[4,12]                   7                          14 
   124 c10[4,13]                   6                          14 
   125 c10[4,14]                   5                          14 
   126 c10[4,15]                   4                          14 
   127 c10[4,16]                   3                          14 
   128 c10[5,2]                  -14                          14 
   129 c10[5,3]                  -13                          14 
   130 c10[5,4]                  -12                          14 
   131 c10[5,5]                    0                          14 
   132 c10[5,6]                  -11                          14 
   133 c10[5,7]                   14                          14 
   134 c10[5,8]                   -2                          14 
   135 c10[5,9]                  -10                          14 
   136 c10[5,10]                  -3                          14 
   137 c10[5,11]                  -4                          14 
   138 c10[5,12]                  -5                          14 
   139 c10[5,13]                  -6                          14 
   140 c10[5,14]                  -7                          14 
   141 c10[5,15]                  -8                          14 
   142 c10[5,16]                  -9                          14 
   143 c10[6,2]                   -3                          14 
   144 c10[6,3]                   -2                          14 
   145 c10[6,4]                   14                          14 
   146 c10[6,5]                   11                          14 
   147 c10[6,6]                    0                          14 
   148 c10[6,7]                   10                          14 
   149 c10[6,8]                    9                          14 
   150 c10[6,9]                    1                          14 
   151 c10[6,10]                   8                          14 
   152 c10[6,11]                   7                          14 
   153 c10[6,12]                   6                          14 
   154 c10[6,13]                   5                          14 
   155 c10[6,14]                   4                          14 
   156 c10[6,15]                   3                          14 
   157 c10[6,16]                   2                          14 
   158 c10[7,2]                  -13                          14 
   159 c10[7,3]                  -12                          14 
   160 c10[7,4]                  -11                          14 
   161 c10[7,5]                    1                          14 
   162 c10[7,6]                  -10                          14 
   163 c10[7,7]                    0                          14 
   164 c10[7,8]                   14                          14 
   165 c10[7,9]                   -9                          14 
   166 c10[7,10]                  -2                          14 
   167 c10[7,11]                  -3                          14 
   168 c10[7,12]                  -4                          14 
   169 c10[7,13]                  -5                          14 
   170 c10[7,14]                  -6                          14 
   171 c10[7,15]                  -7                          14 
   172 c10[7,16]                  -8                          14 
   173 c10[8,2]                  -12                          14 
   174 c10[8,3]                  -11                          14 
   175 c10[8,4]                  -10                          14 
   176 c10[8,5]                    2                          14 
   177 c10[8,6]                   -9                          14 
   178 c10[8,7]                    1                          14 
   179 c10[8,8]                    0                          14 
   180 c10[8,9]                   -8                          14 
   181 c10[8,10]                  14                          14 
   182 c10[8,11]                  -2                          14 
   183 c10[8,12]                  -3                          14 
   184 c10[8,13]                  -4                          14 
   185 c10[8,14]                  -5                          14 
   186 c10[8,15]                  -6                          14 
   187 c10[8,16]                  -7                          14 
   188 c10[9,2]                   -4                          14 
   189 c10[9,3]                   -3                          14 
   190 c10[9,4]                   -2                          14 
   191 c10[9,5]                   10                          14 
   192 c10[9,6]                   14                          14 
   193 c10[9,7]                    9                          14 
   194 c10[9,8]                    8                          14 
   195 c10[9,9]                    0                          14 
   196 c10[9,10]                   7                          14 
   197 c10[9,11]                   6                          14 
   198 c10[9,12]                   5                          14 
   199 c10[9,13]                   4                          14 
   200 c10[9,14]                   3                          14 
   201 c10[9,15]                   2                          14 
   202 c10[9,16]                   1                          14 
   203 c10[10,2]                 -11                          14 
   204 c10[10,3]                 -10                          14 
   205 c10[10,4]                  -9                          14 
   206 c10[10,5]                   3                          14 
   207 c10[10,6]                  -8                          14 
   208 c10[10,7]                   2                          14 
   209 c10[10,8]                   1                          14 
   210 c10[10,9]                  -7                          14 
   211 c10[10,10]                  0                          14 
   212 c10[10,11]                 14                          14 
   213 c10[10,12]                 -2                          14 
   214 c10[10,13]                 -3                          14 
   215 c10[10,14]                 -4                          14 
   216 c10[10,15]                 -5                          14 
   217 c10[10,16]                 -6                          14 
   218 c10[11,2]                 -10                          14 
   219 c10[11,3]                  -9                          14 
   220 c10[11,4]                  -8                          14 
   221 c10[11,5]                   4                          14 
   222 c10[11,6]                  -7                          14 
   223 c10[11,7]                   3                          14 
   224 c10[11,8]                   2                          14 
   225 c10[11,9]                  -6                          14 
   226 c10[11,10]                  1                          14 
   227 c10[11,11]                  0                          14 
   228 c10[11,12]                 14                          14 
   229 c10[11,13]                 -2                          14 
   230 c10[11,14]                 -3                          14 
   231 c10[11,15]                 -4                          14 
   232 c10[11,16]                 -5                          14 
   233 c10[12,2]                  -9                          14 
   234 c10[12,3]                  -8                          14 
   235 c10[12,4]                  -7                          14 
   236 c10[12,5]                   5                          14 
   237 c10[12,6]                  -6                          14 
   238 c10[12,7]                   4                          14 
   239 c10[12,8]                   3                          14 
   240 c10[12,9]                  -5                          14 
   241 c10[12,10]                  2                          14 
   242 c10[12,11]                  1                          14 
   243 c10[12,12]                  0                          14 
   244 c10[12,13]                 14                          14 
   245 c10[12,14]                 -2                          14 
   246 c10[12,15]                 -3                          14 
   247 c10[12,16]                 -4                          14 
   248 c10[13,2]                  -8                          14 
   249 c10[13,3]                  -7                          14 
   250 c10[13,4]                  -6                          14 
   251 c10[13,5]                   6                          14 
   252 c10[13,6]                  -5                          14 
   253 c10[13,7]                   5                          14 
   254 c10[13,8]                   4                          14 
   255 c10[13,9]                  -4                          14 
   256 c10[13,10]                  3                          14 
   257 c10[13,11]                  2                          14 
   258 c10[13,12]                  1                          14 
   259 c10[13,13]                  0                          14 
   260 c10[13,14]                 14                          14 
   261 c10[13,15]                 -2                          14 
   262 c10[13,16]                 -3                          14 
   263 c10[14,2]                  -7                          14 
   264 c10[14,3]                  -6                          14 
   265 c10[14,4]                  -5                          14 
   266 c10[14,5]                   7                          14 
   267 c10[14,6]                  -4                          14 
   268 c10[14,7]                   6                          14 
   269 c10[14,8]                   5                          14 
   270 c10[14,9]                  -3                          14 
   271 c10[14,10]                  4                          14 
   272 c10[14,11]                  3                          14 
   273 c10[14,12]                  2                          14 
   274 c10[14,13]                  1                          14 
   275 c10[14,14]                  0                          14 
   276 c10[14,15]                 14                          14 
   277 c10[14,16]                 -2                          14 
   278 c10[15,2]                  -6                          14 
   279 c10[15,3]                  -5                          14 
   280 c10[15,4]                  -4                          14 
   281 c10[15,5]                   8                          14 
   282 c10[15,6]                  -3                          14 
   283 c10[15,7]                   7                          14 
   284 c10[15,8]                   6                          14 
   285 c10[15,9]                  -2                          14 
   286 c10[15,10]                  5                          14 
   287 c10[15,11]                  4                          14 
   288 c10[15,12]                  3                          14 
   289 c10[15,13]                  2                          14 
   290 c10[15,14]                  1                          14 
   291 c10[15,15]                  0                          14 
   292 c10[15,16]                 14                          14 
   293 c10[16,2]                  -5                          14 
   294 c10[16,3]                  -4                          14 
   295 c10[16,4]                  -3                          14 
   296 c10[16,5]                   9                          14 
   297 c10[16,6]                  -2                          14 
   298 c10[16,7]                   8                          14 
   299 c10[16,8]                   7                          14 
   300 c10[16,9]                  14                          14 
   301 c10[16,10]                  6                          14 
   302 c10[16,11]                  5                          14 
   303 c10[16,12]                  4                          14 
   304 c10[16,13]                  3                          14 
   305 c10[16,14]                  2                          14 
   306 c10[16,15]                  1                          14 
   307 c10[16,16]                  0                          14 

   No. Column name       Activity     Lower bound   Upper bound
------ ------------    ------------- ------------- -------------
     1 v[1]         *              1             0             1 
     2 v[2]         *              1             0             1 
     3 v[3]         *              1             0             1 
     4 v[4]         *              1             0             1 
     5 v[5]         *              1             0             1 
     6 v[6]         *              1             0             1 
     7 v[7]         *              1             0             1 
     8 v[8]         *              1             0             1 
     9 v[9]         *              1             0             1 
    10 v[10]        *              1             0             1 
    11 v[11]        *              1             0             1 
    12 v[12]        *              1             0             1 
    13 v[13]        *              1             0             1 
    14 v[14]        *              1             0             1 
    15 v[15]        *              1             0             1 
    16 v[16]        *              1             0             1 
    17 x[1,1]       *              0             0             1 
    18 x[1,2]       *              0             0             1 
    19 x[1,3]       *              0             0             1 
    20 x[1,4]       *              0             0             1 
    21 x[1,5]       *              1             0             1 
    22 x[1,6]       *              0             0             1 
    23 x[1,7]       *              0             0             1 
    24 x[1,8]       *              0             0             1 
    25 x[1,9]       *              0             0             1 
    26 x[1,10]      *              0             0             1 
    27 x[1,11]      *              0             0             1 
    28 x[1,12]      *              0             0             1 
    29 x[1,13]      *              0             0             1 
    30 x[1,14]      *              0             0             1 
    31 x[1,15]      *              0             0             1 
    32 x[1,16]      *              0             0             1 
    33 x[2,1]       *              1             0             1 
    34 x[2,2]       *              0             0             1 
    35 x[2,3]       *              0             0             1 
    36 x[2,4]       *              0             0             1 
    37 x[2,5]       *              0             0             1 
    38 x[2,6]       *              0             0             1 
    39 x[2,7]       *              0             0             1 
    40 x[2,8]       *              0             0             1 
    41 x[2,9]       *              0             0             1 
    42 x[2,10]      *              0             0             1 
    43 x[2,11]      *              0             0             1 
    44 x[2,12]      *              0             0             1 
    45 x[2,13]      *              0             0             1 
    46 x[2,14]      *              0             0             1 
    47 x[2,15]      *              0             0             1 
    48 x[2,16]      *              0             0             1 
    49 x[3,1]       *              0             0             1 
    50 x[3,2]       *              1             0             1 
    51 x[3,3]       *              0             0             1 
    52 x[3,4]       *              0             0             1 
    53 x[3,5]       *              0             0             1 
    54 x[3,6]       *              0             0             1 
    55 x[3,7]       *              0             0             1 
    56 x[3,8]       *              0             0             1 
    57 x[3,9]       *              0             0             1 
    58 x[3,10]      *              0             0             1 
    59 x[3,11]      *              0             0             1 
    60 x[3,12]      *              0             0             1 
    61 x[3,13]      *              0             0             1 
    62 x[3,14]      *              0             0             1 
    63 x[3,15]      *              0             0             1 
    64 x[3,16]      *              0             0             1 
    65 x[4,1]       *              0             0             1 
    66 x[4,2]       *              0             0             1 
    67 x[4,3]       *              1             0             1 
    68 x[4,4]       *              0             0             1 
    69 x[4,5]       *              0             0             1 
    70 x[4,6]       *              0             0             1 
    71 x[4,7]       *              0             0             1 
    72 x[4,8]       *              0             0             1 
    73 x[4,9]       *              0             0             1 
    74 x[4,10]      *              0             0             1 
    75 x[4,11]      *              0             0             1 
    76 x[4,12]      *              0             0             1 
    77 x[4,13]      *              0             0             1 
    78 x[4,14]      *              0             0             1 
    79 x[4,15]      *              0             0             1 
    80 x[4,16]      *              0             0             1 
    81 x[5,1]       *              0             0             1 
    82 x[5,2]       *              0             0             1 
    83 x[5,3]       *              0             0             1 
    84 x[5,4]       *              0             0             1 
    85 x[5,5]       *              0             0             1 
    86 x[5,6]       *              0             0             1 
    87 x[5,7]       *              1             0             1 
    88 x[5,8]       *              0             0             1 
    89 x[5,9]       *              0             0             1 
    90 x[5,10]      *              0             0             1 
    91 x[5,11]      *              0             0             1 
    92 x[5,12]      *              0             0             1 
    93 x[5,13]      *              0             0             1 
    94 x[5,14]      *              0             0             1 
    95 x[5,15]      *              0             0             1 
    96 x[5,16]      *              0             0             1 
    97 x[6,1]       *              0             0             1 
    98 x[6,2]       *              0             0             1 
    99 x[6,3]       *              0             0             1 
   100 x[6,4]       *              1             0             1 
   101 x[6,5]       *              0             0             1 
   102 x[6,6]       *              0             0             1 
   103 x[6,7]       *              0             0             1 
   104 x[6,8]       *              0             0             1 
   105 x[6,9]       *              0             0             1 
   106 x[6,10]      *              0             0             1 
   107 x[6,11]      *              0             0             1 
   108 x[6,12]      *              0             0             1 
   109 x[6,13]      *              0             0             1 
   110 x[6,14]      *              0             0             1 
   111 x[6,15]      *              0             0             1 
   112 x[6,16]      *              0             0             1 
   113 x[7,1]       *              0             0             1 
   114 x[7,2]       *              0             0             1 
   115 x[7,3]       *              0             0             1 
   116 x[7,4]       *              0             0             1 
   117 x[7,5]       *              0             0             1 
   118 x[7,6]       *              0             0             1 
   119 x[7,7]       *              0             0             1 
   120 x[7,8]       *              1             0             1 
   121 x[7,9]       *              0             0             1 
   122 x[7,10]      *              0             0             1 
   123 x[7,11]      *              0             0             1 
   124 x[7,12]      *              0             0             1 
   125 x[7,13]      *              0             0             1 
   126 x[7,14]      *              0             0             1 
   127 x[7,15]      *              0             0             1 
   128 x[7,16]      *              0             0             1 
   129 x[8,1]       *              0             0             1 
   130 x[8,2]       *              0             0             1 
   131 x[8,3]       *              0             0             1 
   132 x[8,4]       *              0             0             1 
   133 x[8,5]       *              0             0             1 
   134 x[8,6]       *              0             0             1 
   135 x[8,7]       *              0             0             1 
   136 x[8,8]       *              0             0             1 
   137 x[8,9]       *              0             0             1 
   138 x[8,10]      *              1             0             1 
   139 x[8,11]      *              0             0             1 
   140 x[8,12]      *              0             0             1 
   141 x[8,13]      *              0             0             1 
   142 x[8,14]      *              0             0             1 
   143 x[8,15]      *              0             0             1 
   144 x[8,16]      *              0             0             1 
   145 x[9,1]       *              0             0             1 
   146 x[9,2]       *              0             0             1 
   147 x[9,3]       *              0             0             1 
   148 x[9,4]       *              0             0             1 
   149 x[9,5]       *              0             0             1 
   150 x[9,6]       *              1             0             1 
   151 x[9,7]       *              0             0             1 
   152 x[9,8]       *              0             0             1 
   153 x[9,9]       *              0             0             1 
   154 x[9,10]      *              0             0             1 
   155 x[9,11]      *              0             0             1 
   156 x[9,12]      *              0             0             1 
   157 x[9,13]      *              0             0             1 
   158 x[9,14]      *              0             0             1 
   159 x[9,15]      *              0             0             1 
   160 x[9,16]      *              0             0             1 
   161 x[10,1]      *              0             0             1 
   162 x[10,2]      *              0             0             1 
   163 x[10,3]      *              0             0             1 
   164 x[10,4]      *              0             0             1 
   165 x[10,5]      *              0             0             1 
   166 x[10,6]      *              0             0             1 
   167 x[10,7]      *              0             0             1 
   168 x[10,8]      *              0             0             1 
   169 x[10,9]      *              0             0             1 
   170 x[10,10]     *              0             0             1 
   171 x[10,11]     *              1             0             1 
   172 x[10,12]     *              0             0             1 
   173 x[10,13]     *              0             0             1 
   174 x[10,14]     *              0             0             1 
   175 x[10,15]     *              0             0             1 
   176 x[10,16]     *              0             0             1 
   177 x[11,1]      *              0             0             1 
   178 x[11,2]      *              0             0             1 
   179 x[11,3]      *              0             0             1 
   180 x[11,4]      *              0             0             1 
   181 x[11,5]      *              0             0             1 
   182 x[11,6]      *              0             0             1 
   183 x[11,7]      *              0             0             1 
   184 x[11,8]      *              0             0             1 
   185 x[11,9]      *              0             0             1 
   186 x[11,10]     *              0             0             1 
   187 x[11,11]     *              0             0             1 
   188 x[11,12]     *              1             0             1 
   189 x[11,13]     *              0             0             1 
   190 x[11,14]     *              0             0             1 
   191 x[11,15]     *              0             0             1 
   192 x[11,16]     *              0             0             1 
   193 x[12,1]      *              0             0             1 
   194 x[12,2]      *              0             0             1 
   195 x[12,3]      *              0             0             1 
   196 x[12,4]      *              0             0             1 
   197 x[12,5]      *              0             0             1 
   198 x[12,6]      *              0             0             1 
   199 x[12,7]      *              0             0             1 
   200 x[12,8]      *              0             0             1 
   201 x[12,9]      *              0             0             1 
   202 x[12,10]     *              0             0             1 
   203 x[12,11]     *              0             0             1 
   204 x[12,12]     *              0             0             1 
   205 x[12,13]     *              1             0             1 
   206 x[12,14]     *              0             0             1 
   207 x[12,15]     *              0             0             1 
   208 x[12,16]     *              0             0             1 
   209 x[13,1]      *              0             0             1 
   210 x[13,2]      *              0             0             1 
   211 x[13,3]      *              0             0             1 
   212 x[13,4]      *              0             0             1 
   213 x[13,5]      *              0             0             1 
   214 x[13,6]      *              0             0             1 
   215 x[13,7]      *              0             0             1 
   216 x[13,8]      *              0             0             1 
   217 x[13,9]      *              0             0             1 
   218 x[13,10]     *              0             0             1 
   219 x[13,11]     *              0             0             1 
   220 x[13,12]     *              0             0             1 
   221 x[13,13]     *              0             0             1 
   222 x[13,14]     *              1             0             1 
   223 x[13,15]     *              0             0             1 
   224 x[13,16]     *              0             0             1 
   225 x[14,1]      *              0             0             1 
   226 x[14,2]      *              0             0             1 
   227 x[14,3]      *              0             0             1 
   228 x[14,4]      *              0             0             1 
   229 x[14,5]      *              0             0             1 
   230 x[14,6]      *              0             0             1 
   231 x[14,7]      *              0             0             1 
   232 x[14,8]      *              0             0             1 
   233 x[14,9]      *              0             0             1 
   234 x[14,10]     *              0             0             1 
   235 x[14,11]     *              0             0             1 
   236 x[14,12]     *              0             0             1 
   237 x[14,13]     *              0             0             1 
   238 x[14,14]     *              0             0             1 
   239 x[14,15]     *              1             0             1 
   240 x[14,16]     *              0             0             1 
   241 x[15,1]      *              0             0             1 
   242 x[15,2]      *              0             0             1 
   243 x[15,3]      *              0             0             1 
   244 x[15,4]      *              0             0             1 
   245 x[15,5]      *              0             0             1 
   246 x[15,6]      *              0             0             1 
   247 x[15,7]      *              0             0             1 
   248 x[15,8]      *              0             0             1 
   249 x[15,9]      *              0             0             1 
   250 x[15,10]     *              0             0             1 
   251 x[15,11]     *              0             0             1 
   252 x[15,12]     *              0             0             1 
   253 x[15,13]     *              0             0             1 
   254 x[15,14]     *              0             0             1 
   255 x[15,15]     *              0             0             1 
   256 x[15,16]     *              1             0             1 
   257 x[16,1]      *              0             0             1 
   258 x[16,2]      *              0             0             1 
   259 x[16,3]      *              0             0             1 
   260 x[16,4]      *              0             0             1 
   261 x[16,5]      *              0             0             1 
   262 x[16,6]      *              0             0             1 
   263 x[16,7]      *              0             0             1 
   264 x[16,8]      *              0             0             1 
   265 x[16,9]      *              1             0             1 
   266 x[16,10]     *              0             0             1 
   267 x[16,11]     *              0             0             1 
   268 x[16,12]     *              0             0             1 
   269 x[16,13]     *              0             0             1 
   270 x[16,14]     *              0             0             1 
   271 x[16,15]     *              0             0             1 
   272 x[16,16]     *              0             0             1 
   273 u[1]                        1                             
   274 u[2]                       16                             
   275 u[3]                       15                             
   276 u[4]                       14                             
   277 u[5]                        2                             
   278 u[6]                       13                             
   279 u[7]                        3                             
   280 u[8]                        4                             
   281 u[9]                       12                             
   282 u[10]                       5                             
   283 u[11]                       6                             
   284 u[12]                       7                             
   285 u[13]                       8                             
   286 u[14]                       9                             
   287 u[15]                      10                             
   288 u[16]                      11                             

Integer feasibility conditions:

KKT.PE: max.abs.err = 0.00e+00 on row 0
        max.rel.err = 0.00e+00 on row 0
        High quality

KKT.PB: max.abs.err = 0.00e+00 on row 0
        max.rel.err = 0.00e+00 on row 0
        High quality

End of output
